c description: Random 3-CNF over 18 variables and 77 clauses
c generator: CNFgen (0.9.2)
c copyright: (C) 2012-2022 Massimo Lauria <massimo.lauria@uniroma1.it>
c url: https://massimolauria.net/cnfgen
c command line: cnfgen --output CNF_4.28/18_bit_77_596.cnf randkcnf 3 18 77
c
p cnf 18 77
-7 9 -12 0
2 8 10 0
-1 -3 -7 0
-3 -5 -11 0
3 -4 6 0
-13 14 -18 0
5 -7 8 0
3 -6 10 0
-2 -6 -15 0
-8 -11 -12 0
7 -12 -17 0
5 -9 15 0
-7 -9 -10 0
5 -17 18 0
-6 -16 -18 0
-3 -10 -15 0
8 10 -18 0
-12 -15 -17 0
10 -12 16 0
7 11 13 0
-12 -14 -15 0
8 9 -12 0
-4 10 -14 0
-3 8 9 0
4 9 18 0
2 5 -7 0
2 3 16 0
4 13 -18 0
-10 13 14 0
-3 -7 -9 0
5 -6 -11 0
-2 13 -14 0
3 4 -5 0
1 5 8 0
5 15 -18 0
2 -3 13 0
-5 7 12 0
-2 12 17 0
10 15 17 0
1 -4 -8 0
4 6 -18 0
5 12 13 0
8 -12 16 0
-3 11 14 0
5 10 18 0
-3 -9 -16 0
3 -6 -12 0
4 14 17 0
5 8 9 0
-1 -11 -16 0
-1 6 9 0
-11 13 -16 0
8 9 -16 0
6 9 16 0
10 -14 18 0
-3 -7 12 0
-9 11 15 0
6 7 -15 0
3 13 -16 0
-8 -12 18 0
-3 -6 -18 0
-1 -2 6 0
3 -8 12 0
-3 -10 12 0
-10 -12 13 0
-5 -13 18 0
5 13 -17 0
-1 8 -17 0
-4 -6 14 0
1 -13 -17 0
-3 4 -9 0
-3 4 -17 0
1 -5 14 0
-9 12 -15 0
12 -15 17 0
-8 12 14 0
-10 11 -13 0
